NAME : 10_3_3_3_(42).dat
COMMENT : Henke, Speranza, Wäscher, 2015
TYPE : MCVRP
DIMENSION : 11
EDGE_WEIGHT_TYPE : DISTANCE_MATRIX
CAPACITY : 1000
VEHICLES : 2
PRODUCT TYPES : 3
COMPARTMENTS : 3
NODE_COORD_SECTION
1 50 50
2 65.3 16.52
3 1.57 18.14
4 72.33 27.94
5 34.25 8.85
6 14.25 44.99
7 15.01 79.12
8 34.55 10.3
9 43.52 66.63
10 3.53 9.78
11 69.33 9.04
DEMAND_SECTION
1 0 0 0
2 34 22 1
3 111 1 31
4 43 23 47
5 75 63 43
6 86 50 12
7 68 69 20
8 90 14 8
9 56 76 45
10 123 49 27
11 30 62 51
DEPOT_SECTION
1
EOF